(set-option :auto-config true)
(declare-const GEN1 Real)
(declare-const GEN2 Real)
(declare-const GEN3 Real)
(declare-const GEN4 Real)
(declare-const BAV5 Bool)
(declare-const BAV6 Bool)
(set-option :produce-models true)
(declare-const a Real)
(assert (= (/ a GEN1) GEN2))
(assert (= BAV5 (= (/ a GEN1) GEN2)))
(assert (= BAV6 (= (/ a GEN3) GEN4)))
(check-sat)
(get-model)
(assert (= (/ a GEN3) GEN4))
(check-sat)